node
#name	v	h	weight
1	0	0	0
2	0	0	37798
3	0	0	0
4	0	0	0
5	0	0	13916
6	0	0	0
7	0	0	46365
8	0	0	88037
9	0	0	84886
10	0	0	0
11	0	0	0
12	0	0	0
13	0	0	0
14	0	0	74683
15	0	0	0
16	0	0	0
17	0	0	33330
18	0	0	0
19	0	0	76270
20	0	0	0
21	0	0	0
22	0	0	0
23	0	0	0
24	0	0	87812
25	0	0	5178
26	0	0	0
27	0	0	0
28	0	0	29105
29	0	0	0
30	0	0	0
31	0	0	0
32	0	0	0
33	0	0	0
34	0	0	0
35	0	0	0
36	0	0	0
37	0	0	0
38	0	0	0
39	0	0	0
40	0	0	0
41	0	0	0
42	0	0	0
43	0	0	0
44	0	0	0
45	0	0	71656
46	0	0	0
47	0	0	0
48	0	0	0
49	0	0	0
50	0	0	0
51	0	0	0
52	0	0	0
53	0	0	0
54	0	0	0
55	0	0	0
56	0	0	0
57	0	0	0
58	0	0	0
59	0	0	29966
60	0	0	0
61	0	0	0
62	0	0	78591
63	0	0	0
64	0	0	0
65	0	0	0
66	0	0	0
67	0	0	0
68	0	0	48794
69	0	0	80435
70	0	0	0
71	0	0	52092
72	0	0	0
73	0	0	0
74	0	0	0
75	0	0	0
76	0	0	18394
77	0	0	0
78	0	0	0
79	0	0	0
80	0	0	0
81	0	0	0
82	0	0	0
83	0	0	0
84	0	0	0
85	0	0	0
86	0	0	0
87	0	0	66422
88	0	0	0
89	0	0	0
90	0	0	0
91	0	0	36429
92	0	0	0
93	0	0	0
94	0	0	0
95	0	0	0
96	0	0	18560
97	0	0	0
98	0	0	0
99	0	0	64681
100	0	0	0
101	0	0	0
102	0	0	0
103	0	0	0
104	0	0	25971
105	0	0	50074
106	0	0	0
107	0	0	0
108	0	0	0
109	0	0	6931
110	0	0	0
111	0	0	73353
112	0	0	0
113	0	0	0
114	0	0	6379
115	0	0	0
116	0	0	0
117	0	0	0
118	0	0	0
119	0	0	0
120	0	0	0
121	0	0	0
122	0	0	0
123	0	0	4864
124	0	0	39848
125	0	0	0
126	0	0	0
127	0	0	0
128	0	0	0
129	0	0	16729
130	0	0	69409
131	0	0	0
132	0	0	0
133	0	0	0
134	0	0	0
135	0	0	0
136	0	0	0
137	0	0	0
138	0	0	0
139	0	0	0
140	0	0	0
141	0	0	0
142	0	0	0
143	0	0	0
144	0	0	0
145	0	0	88578
146	0	0	97537
147	0	0	0
148	0	0	0
149	0	0	51868
150	0	0	0
151	0	0	0
152	0	0	0
153	0	0	0
154	0	0	0
155	0	0	0
156	0	0	0
157	0	0	0
158	0	0	44662
159	0	0	0
160	0	0	0
161	0	0	96159
162	0	0	0
163	0	0	0
164	0	0	0
165	0	0	0
166	0	0	87892
167	0	0	0
168	0	0	0
169	0	0	0
170	0	0	0
171	0	0	0
172	0	0	0
173	0	0	0
174	0	0	0
175	0	0	70396
176	0	0	87874
177	0	0	0
178	0	0	0
179	0	0	0
180	0	0	0
181	0	0	29705
182	0	0	32465
183	0	0	0
184	0	0	0
185	0	0	0
186	0	0	0
187	0	0	0
188	0	0	53990
189	0	0	0
190	0	0	0
191	0	0	0
192	0	0	0
193	0	0	13724
194	0	0	0
195	0	0	0
196	0	0	0
197	0	0	0
198	0	0	0
199	0	0	68260
200	0	0	0
201	0	0	0
202	0	0	0
203	0	0	0
204	0	0	6560
205	0	0	16976
206	0	0	0
207	0	0	49441
208	0	0	76756
209	0	0	0
210	0	0	30401
211	0	0	55969
212	0	0	55107
213	0	0	3258
214	0	0	0
215	0	0	0
216	0	0	0
217	0	0	0
218	0	0	0
219	0	0	21361
220	0	0	69227
221	0	0	0
222	0	0	0
223	0	0	0
224	0	0	52200
225	0	0	0
226	0	0	69177
227	0	0	0
228	0	0	0
229	0	0	78823
230	0	0	98933
231	0	0	0
232	0	0	0
233	0	0	0
234	0	0	0
235	0	0	0
236	0	0	0
237	0	0	0
238	0	0	0
239	0	0	0
240	0	0	0
241	0	0	93126
242	0	0	0
243	0	0	14487
244	0	0	0
245	0	0	0
246	0	0	0
247	0	0	0
248	0	0	68486
249	0	0	0
250	0	0	0
251	0	0	0
252	0	0	0
253	0	0	20622
254	0	0	0
255	0	0	0
256	0	0	0
257	0	0	0
258	0	0	0
259	0	0	0
260	0	0	0
261	0	0	41690
262	0	0	0
263	0	0	0
264	0	0	61113
265	0	0	0
266	0	0	0
267	0	0	0
268	0	0	0
269	0	0	0
270	0	0	0
271	0	0	0
272	0	0	0
273	0	0	0
274	0	0	0
275	0	0	0
276	0	0	79154
277	0	0	85943
278	0	0	0
279	0	0	0
280	0	0	16022
281	0	0	0
282	0	0	0
283	0	0	0
284	0	0	15591
285	0	0	0
286	0	0	0
287	0	0	0
288	0	0	9932
289	0	0	0
290	0	0	0
291	0	0	0
292	0	0	16513
293	0	0	0
294	0	0	0
295	0	0	0
296	0	0	0
297	0	0	17779
298	0	0	0
299	0	0	0
300	0	0	67318
301	0	0	4747
302	0	0	46847
303	0	0	21620
304	0	0	0
305	0	0	0
306	0	0	3539
307	0	0	0
308	0	0	0
309	0	0	0
310	0	0	84856
311	0	0	0
312	0	0	0
313	0	0	0
314	0	0	0
315	0	0	0
316	0	0	0
317	0	0	0
318	0	0	0
319	0	0	0
320	0	0	0
321	0	0	0
322	0	0	0
323	0	0	0
324	0	0	0
325	0	0	0
326	0	0	0
327	0	0	0
328	0	0	0
329	0	0	0
330	0	0	1528
331	0	0	0
332	0	0	0
333	0	0	0
334	0	0	0
335	0	0	0
336	0	0	59964
337	0	0	0
338	0	0	0
339	0	0	0
340	0	0	0
341	0	0	0
342	0	0	0
343	0	0	28582
344	0	0	0
345	0	0	0
346	0	0	0
347	0	0	68691
348	0	0	0
349	0	0	0
350	0	0	0
351	0	0	56614
352	0	0	0
353	0	0	0
354	0	0	0
355	0	0	61570
356	0	0	0
357	0	0	0
358	0	0	0
359	0	0	49366
360	0	0	0
361	0	0	9330
362	0	0	0
363	0	0	0
364	0	0	0
365	0	0	0
366	0	0	0
367	0	0	0
368	0	0	0
369	0	0	0
370	0	0	48646
371	0	0	6179
372	0	0	59357
373	0	0	0
374	0	0	0
375	0	0	0
376	0	0	0
377	0	0	18563
378	0	0	0
379	0	0	0
380	0	0	0
381	0	0	0
382	0	0	31134
383	0	0	0
384	0	0	0
385	0	0	0
386	0	0	0
387	0	0	0
388	0	0	0
389	0	0	21366
390	0	0	0
391	0	0	67468
392	0	0	0
393	0	0	0
394	0	0	0
395	0	0	45209
396	0	0	0
397	0	0	4566
398	0	0	0
399	0	0	0
400	0	0	0
link
#link	x	y	length	RIN	notes
1	1	92	60502	na	na
2	1	123	20865	na	na
3	1	139	75079	na	na
4	2	47	5766	na	na
5	2	50	74374	na	na
6	2	126	63712	na	na
7	2	178	46343	na	na
8	2	291	15680	na	na
9	2	359	14874	na	na
10	2	388	11667	na	na
11	3	282	24098	na	na
12	3	374	20460	na	na
13	4	39	95455	na	na
14	4	188	80619	na	na
15	4	200	36311	na	na
16	4	348	83835	na	na
17	4	396	43638	na	na
18	5	15	14818	na	na
19	5	33	29994	na	na
20	5	54	60299	na	na
21	5	78	77095	na	na
22	5	132	91595	na	na
23	5	133	55181	na	na
24	5	379	29711	na	na
25	6	77	6963	na	na
26	6	107	8759	na	na
27	6	111	22261	na	na
28	6	138	26626	na	na
29	6	139	1750	na	na
30	6	180	88035	na	na
31	6	331	29848	na	na
32	6	388	49066	na	na
33	7	9	31598	na	na
34	7	223	40398	na	na
35	7	390	85534	na	na
36	7	391	59034	na	na
37	8	73	8782	na	na
38	8	272	92665	na	na
39	9	108	80760	na	na
40	9	233	98893	na	na
41	9	236	81243	na	na
42	9	352	36428	na	na
43	9	379	67594	na	na
44	9	381	4023	na	na
45	10	24	65548	na	na
46	10	210	31271	na	na
47	10	349	97286	na	na
48	10	384	443	na	na
49	11	249	49566	na	na
50	11	299	20724	na	na
51	11	324	29720	na	na
52	11	357	69468	na	na
53	11	358	48641	na	na
54	11	396	42640	na	na
55	12	94	80402	na	na
56	12	162	55935	na	na
57	12	180	68314	na	na
58	12	201	21147	na	na
59	12	207	11078	na	na
60	12	267	7023	na	na
61	12	318	69170	na	na
62	12	388	77722	na	na
63	13	222	59774	na	na
64	13	261	73384	na	na
65	13	289	12294	na	na
66	13	293	75606	na	na
67	13	320	68410	na	na
68	13	322	44017	na	na
69	13	369	95697	na	na
70	14	76	11377	na	na
71	14	112	24897	na	na
72	14	227	81048	na	na
73	14	272	10030	na	na
74	14	330	29461	na	na
75	15	195	79330	na	na
76	15	289	18962	na	na
77	16	255	65058	na	na
78	16	355	14825	na	na
79	17	32	91956	na	na
80	17	41	1887	na	na
81	17	104	56188	na	na
82	17	258	42160	na	na
83	18	102	93781	na	na
84	18	141	94069	na	na
85	18	156	88173	na	na
86	18	232	7796	na	na
87	18	364	84961	na	na
88	19	24	77316	na	na
89	19	65	29722	na	na
90	19	91	87728	na	na
91	19	143	55101	na	na
92	19	221	49224	na	na
93	19	224	83428	na	na
94	19	227	7519	na	na
95	19	273	94104	na	na
96	19	339	15586	na	na
97	20	128	62666	na	na
98	20	159	91788	na	na
99	20	192	33932	na	na
100	20	196	67643	na	na
101	20	214	81087	na	na
102	20	387	58490	na	na
103	21	93	51665	na	na
104	21	125	67733	na	na
105	21	138	49087	na	na
106	21	205	68670	na	na
107	21	212	13253	na	na
108	22	41	88318	na	na
109	22	277	11968	na	na
110	22	292	21882	na	na
111	22	299	80933	na	na
112	22	307	56323	na	na
113	22	324	90072	na	na
114	22	353	26711	na	na
115	22	377	20134	na	na
116	23	40	7832	na	na
117	23	83	18847	na	na
118	23	99	60516	na	na
119	23	161	31708	na	na
120	23	305	49612	na	na
121	23	373	37343	na	na
122	24	38	84935	na	na
123	24	148	71688	na	na
124	24	213	63271	na	na
125	24	329	24535	na	na
126	25	55	67568	na	na
127	25	130	76559	na	na
128	25	163	56663	na	na
129	25	233	3665	na	na
130	25	291	13614	na	na
131	26	206	91874	na	na
132	26	227	52308	na	na
133	26	244	24392	na	na
134	26	276	99749	na	na
135	26	333	56086	na	na
136	27	34	49235	na	na
137	27	86	93829	na	na
138	27	287	18261	na	na
139	27	327	92310	na	na
140	28	33	75324	na	na
141	28	45	4503	na	na
142	28	61	69349	na	na
143	28	144	54013	na	na
144	28	162	67926	na	na
145	28	247	68659	na	na
146	29	76	84144	na	na
147	29	115	1908	na	na
148	29	120	20153	na	na
149	29	235	96365	na	na
150	29	300	45931	na	na
151	29	314	98359	na	na
152	29	366	68863	na	na
153	29	374	88544	na	na
154	30	41	9561	na	na
155	30	67	8009	na	na
156	30	168	22169	na	na
157	30	252	35123	na	na
158	30	387	59669	na	na
159	31	248	50839	na	na
160	31	265	15042	na	na
161	31	271	18717	na	na
162	32	181	91128	na	na
163	32	379	77375	na	na
164	32	382	41376	na	na
165	33	56	29997	na	na
166	33	75	47998	na	na
167	33	93	94635	na	na
168	33	180	99250	na	na
169	33	392	64516	na	na
170	34	49	34822	na	na
171	34	92	82780	na	na
172	34	98	81160	na	na
173	34	160	21569	na	na
174	34	166	64949	na	na
175	34	183	91067	na	na
176	34	224	4359	na	na
177	34	235	35359	na	na
178	34	312	3287	na	na
179	34	352	15947	na	na
180	35	44	43399	na	na
181	35	64	29489	na	na
182	35	73	18500	na	na
183	35	106	32386	na	na
184	35	128	20118	na	na
185	35	135	37704	na	na
186	35	242	2565	na	na
187	35	313	14758	na	na
188	36	132	31803	na	na
189	37	48	20368	na	na
190	37	91	38962	na	na
191	37	137	10652	na	na
192	37	260	25057	na	na
193	37	269	44199	na	na
194	37	301	82865	na	na
195	37	315	32918	na	na
196	38	104	40254	na	na
197	38	116	9515	na	na
198	38	223	24678	na	na
199	38	275	35123	na	na
200	38	296	27776	na	na
201	38	340	58872	na	na
202	38	373	30514	na	na
203	39	79	83731	na	na
204	39	130	51105	na	na
205	39	288	75546	na	na
206	39	306	8905	na	na
207	39	367	22108	na	na
208	40	92	43014	na	na
209	40	217	89990	na	na
210	40	250	55365	na	na
211	40	276	48746	na	na
212	40	277	25924	na	na
213	40	310	52266	na	na
214	40	341	51711	na	na
215	41	91	63111	na	na
216	41	124	8661	na	na
217	41	129	45887	na	na
218	41	169	83885	na	na
219	42	49	43806	na	na
220	42	58	94909	na	na
221	42	83	11799	na	na
222	42	114	13757	na	na
223	42	185	75086	na	na
224	42	199	56694	na	na
225	42	208	66058	na	na
226	42	303	44303	na	na
227	42	371	8369	na	na
228	43	134	80135	na	na
229	43	158	92993	na	na
230	43	174	93007	na	na
231	43	203	23463	na	na
232	43	355	59288	na	na
233	44	249	193	na	na
234	44	276	6998	na	na
235	44	278	7192	na	na
236	44	387	79013	na	na
237	45	365	93606	na	na
238	46	85	63724	na	na
239	46	137	69569	na	na
240	46	139	41928	na	na
241	46	231	57375	na	na
242	46	256	96338	na	na
243	46	269	37671	na	na
244	46	293	67002	na	na
245	46	396	37704	na	na
246	46	400	97398	na	na
247	47	178	85570	na	na
248	47	271	59511	na	na
249	47	286	67477	na	na
250	47	343	19066	na	na
251	47	384	93023	na	na
252	48	108	13495	na	na
253	48	127	2341	na	na
254	48	159	41299	na	na
255	48	162	67782	na	na
256	48	187	73335	na	na
257	48	190	32236	na	na
258	48	213	71431	na	na
259	48	252	53973	na	na
260	49	65	82426	na	na
261	49	71	89929	na	na
262	49	75	61132	na	na
263	49	79	9788	na	na
264	49	149	42259	na	na
265	49	183	56519	na	na
266	49	277	63850	na	na
267	49	398	89786	na	na
268	50	207	28891	na	na
269	50	239	98966	na	na
270	50	254	61096	na	na
271	50	383	28617	na	na
272	51	125	94257	na	na
273	51	228	90409	na	na
274	51	328	18409	na	na
275	51	348	54230	na	na
276	52	57	19110	na	na
277	52	140	12442	na	na
278	52	214	42285	na	na
279	52	325	75060	na	na
280	53	156	83921	na	na
281	53	211	97475	na	na
282	53	324	58487	na	na
283	54	61	24428	na	na
284	54	103	71343	na	na
285	54	139	6070	na	na
286	54	199	60424	na	na
287	54	318	21410	na	na
288	54	383	77640	na	na
289	55	63	96234	na	na
290	55	127	96409	na	na
291	55	267	6114	na	na
292	55	328	9639	na	na
293	55	338	16100	na	na
294	55	377	47445	na	na
295	56	280	63633	na	na
296	56	312	76610	na	na
297	56	354	82613	na	na
298	56	377	96138	na	na
299	57	69	27229	na	na
300	57	216	12107	na	na
301	57	233	29888	na	na
302	57	242	38605	na	na
303	57	244	50712	na	na
304	57	294	3748	na	na
305	58	62	15864	na	na
306	58	92	35283	na	na
307	58	117	60135	na	na
308	58	161	87667	na	na
309	58	172	62440	na	na
310	59	258	80035	na	na
311	59	279	29688	na	na
312	60	227	20028	na	na
313	60	361	89082	na	na
314	61	323	41123	na	na
315	62	65	77329	na	na
316	62	82	25821	na	na
317	62	99	11409	na	na
318	62	169	54708	na	na
319	62	174	16920	na	na
320	62	201	61286	na	na
321	62	221	23927	na	na
322	62	229	16637	na	na
323	62	249	20078	na	na
324	62	263	22023	na	na
325	62	328	76970	na	na
326	62	332	552	na	na
327	62	342	9442	na	na
328	62	347	75972	na	na
329	62	362	60808	na	na
330	63	156	50036	na	na
331	63	178	3931	na	na
332	63	197	26322	na	na
333	63	338	25325	na	na
334	63	368	66848	na	na
335	64	133	26154	na	na
336	64	168	2751	na	na
337	64	191	33528	na	na
338	64	208	21695	na	na
339	64	302	57207	na	na
340	64	357	39945	na	na
341	64	371	47376	na	na
342	65	185	87593	na	na
343	65	189	34687	na	na
344	65	204	23490	na	na
345	65	222	42980	na	na
346	65	331	70632	na	na
347	66	75	63184	na	na
348	66	151	79910	na	na
349	66	294	7021	na	na
350	66	336	35190	na	na
351	67	105	69932	na	na
352	67	162	22481	na	na
353	67	337	35694	na	na
354	67	398	86796	na	na
355	68	253	82256	na	na
356	68	279	35476	na	na
357	68	306	39592	na	na
358	68	329	9569	na	na
359	69	95	99766	na	na
360	69	241	84627	na	na
361	69	245	70127	na	na
362	69	284	8799	na	na
363	70	160	43469	na	na
364	70	303	45681	na	na
365	70	357	57992	na	na
366	70	365	86041	na	na
367	70	372	45812	na	na
368	71	146	82086	na	na
369	71	147	24091	na	na
370	71	225	94417	na	na
371	71	245	70760	na	na
372	71	361	58310	na	na
373	71	392	35242	na	na
374	72	160	42321	na	na
375	72	172	76996	na	na
376	72	210	85292	na	na
377	72	244	59238	na	na
378	73	209	43095	na	na
379	74	79	67339	na	na
380	74	117	10696	na	na
381	74	261	52229	na	na
382	74	379	40841	na	na
383	75	93	12163	na	na
384	75	100	40478	na	na
385	75	102	46580	na	na
386	75	222	63358	na	na
387	75	238	96970	na	na
388	75	275	38500	na	na
389	75	315	64070	na	na
390	75	354	45996	na	na
391	75	370	4893	na	na
392	76	145	33010	na	na
393	76	155	65331	na	na
394	76	182	84140	na	na
395	76	278	2572	na	na
396	76	347	74206	na	na
397	76	389	65649	na	na
398	77	213	95397	na	na
399	77	261	45908	na	na
400	77	278	93779	na	na
401	77	365	67862	na	na
402	78	249	77656	na	na
403	78	376	25733	na	na
404	79	159	96147	na	na
405	79	206	97042	na	na
406	79	237	60498	na	na
407	79	286	72029	na	na
408	79	294	96809	na	na
409	79	333	9527	na	na
410	79	356	13990	na	na
411	79	377	54581	na	na
412	80	98	54380	na	na
413	80	171	36925	na	na
414	80	191	41248	na	na
415	80	365	83816	na	na
416	80	368	67889	na	na
417	81	84	7638	na	na
418	81	218	34842	na	na
419	81	241	85808	na	na
420	81	262	80900	na	na
421	81	351	49497	na	na
422	81	384	63094	na	na
423	82	133	15799	na	na
424	83	122	10141	na	na
425	83	194	89746	na	na
426	83	344	90109	na	na
427	84	178	80146	na	na
428	84	194	73319	na	na
429	84	246	87648	na	na
430	84	282	94835	na	na
431	84	283	21610	na	na
432	84	336	23427	na	na
433	85	140	99995	na	na
434	85	248	25750	na	na
435	85	349	79134	na	na
436	85	381	85483	na	na
437	85	390	66686	na	na
438	86	138	58562	na	na
439	86	229	43105	na	na
440	87	123	8209	na	na
441	87	126	99739	na	na
442	87	182	34321	na	na
443	87	190	22548	na	na
444	87	238	62959	na	na
445	87	239	56833	na	na
446	87	304	29199	na	na
447	88	199	78204	na	na
448	88	221	24410	na	na
449	88	225	49035	na	na
450	89	173	96143	na	na
451	89	223	39364	na	na
452	89	397	43769	na	na
453	90	124	4122	na	na
454	90	251	83169	na	na
455	90	275	52581	na	na
456	90	374	81135	na	na
457	91	110	30234	na	na
458	91	128	3790	na	na
459	91	162	504	na	na
460	91	307	87797	na	na
461	91	395	19484	na	na
462	92	169	72975	na	na
463	92	218	72306	na	na
464	92	262	18263	na	na
465	92	282	89238	na	na
466	92	308	59810	na	na
467	93	121	70472	na	na
468	93	123	70298	na	na
469	93	139	49956	na	na
470	93	176	64832	na	na
471	93	250	82668	na	na
472	93	276	54020	na	na
473	93	323	16678	na	na
474	93	336	46810	na	na
475	93	371	90601	na	na
476	93	388	77704	na	na
477	94	142	17841	na	na
478	94	159	52009	na	na
479	94	215	92689	na	na
480	94	225	63871	na	na
481	95	100	44429	na	na
482	95	181	12348	na	na
483	95	197	79057	na	na
484	95	201	95037	na	na
485	95	217	5463	na	na
486	95	220	41461	na	na
487	95	314	76964	na	na
488	96	191	58638	na	na
489	97	103	11941	na	na
490	97	108	61238	na	na
491	97	359	28983	na	na
492	98	227	21052	na	na
493	98	365	73843	na	na
494	99	287	96600	na	na
495	99	288	35708	na	na
496	99	375	31451	na	na
497	99	393	57743	na	na
498	99	400	68257	na	na
499	100	126	67634	na	na
500	100	314	83836	na	na
501	100	353	8496	na	na
502	100	363	32700	na	na
503	100	385	10371	na	na
504	101	109	265	na	na
505	101	248	65500	na	na
506	101	252	38168	na	na
507	101	336	55566	na	na
508	101	375	3284	na	na
509	102	113	30951	na	na
510	102	174	12330	na	na
511	102	311	39890	na	na
512	103	114	27397	na	na
513	103	181	31940	na	na
514	103	183	79113	na	na
515	103	261	82903	na	na
516	103	286	40178	na	na
517	103	332	11038	na	na
518	103	368	3751	na	na
519	104	174	92184	na	na
520	104	399	31323	na	na
521	105	203	28770	na	na
522	105	235	21510	na	na
523	105	267	19764	na	na
524	105	346	80140	na	na
525	106	123	86650	na	na
526	106	254	61377	na	na
527	106	285	19424	na	na
528	106	329	7312	na	na
529	107	129	17962	na	na
530	107	215	61493	na	na
531	107	229	91410	na	na
532	107	251	59015	na	na
533	107	323	32351	na	na
534	108	176	94959	na	na
535	108	194	61274	na	na
536	108	256	30322	na	na
537	108	275	64607	na	na
538	108	285	71524	na	na
539	108	347	17247	na	na
540	108	357	4856	na	na
541	109	167	46912	na	na
542	109	214	66271	na	na
543	109	285	33387	na	na
544	109	312	91043	na	na
545	109	377	65707	na	na
546	109	392	69526	na	na
547	110	192	91769	na	na
548	110	216	96691	na	na
549	110	326	70599	na	na
550	110	339	55593	na	na
551	110	372	14977	na	na
552	110	393	29491	na	na
553	111	159	40017	na	na
554	111	181	59495	na	na
555	111	196	25304	na	na
556	111	319	92626	na	na
557	112	228	9776	na	na
558	112	385	65274	na	na
559	113	329	95237	na	na
560	114	221	55164	na	na
561	114	248	91010	na	na
562	114	250	46174	na	na
563	114	326	8844	na	na
564	114	392	82763	na	na
565	115	124	35352	na	na
566	115	137	56346	na	na
567	115	141	38558	na	na
568	115	162	93776	na	na
569	115	300	21070	na	na
570	115	347	52043	na	na
571	115	348	42656	na	na
572	116	161	38025	na	na
573	116	204	56594	na	na
574	116	340	31714	na	na
575	116	394	1709	na	na
576	117	170	90853	na	na
577	117	173	47272	na	na
578	117	225	82424	na	na
579	117	312	89060	na	na
580	118	124	90518	na	na
581	118	135	20899	na	na
582	118	182	69626	na	na
583	118	184	38936	na	na
584	118	313	16379	na	na
585	118	369	71897	na	na
586	119	322	87892	na	na
587	119	396	77916	na	na
588	119	397	78000	na	na
589	120	168	26188	na	na
590	120	381	81461	na	na
591	121	142	12434	na	na
592	121	179	40109	na	na
593	121	193	72187	na	na
594	121	229	30958	na	na
595	121	270	50714	na	na
596	121	319	54072	na	na
597	121	344	22859	na	na
598	121	349	60111	na	na
599	121	351	66165	na	na
600	122	202	19205	na	na
601	122	245	59101	na	na
602	122	255	52112	na	na
603	122	323	15551	na	na
604	122	367	19450	na	na
605	122	375	33477	na	na
606	123	194	20127	na	na
607	123	206	98585	na	na
608	123	341	24516	na	na
609	123	369	75867	na	na
610	124	297	92497	na	na
611	124	328	99902	na	na
612	124	333	17580	na	na
613	124	383	62687	na	na
614	125	200	68975	na	na
615	125	342	64246	na	na
616	126	139	72867	na	na
617	126	141	35159	na	na
618	126	198	6183	na	na
619	126	219	92077	na	na
620	126	369	64155	na	na
621	127	164	52653	na	na
622	127	332	77998	na	na
623	127	358	1107	na	na
624	127	365	14814	na	na
625	128	218	8642	na	na
626	128	232	19601	na	na
627	128	251	29985	na	na
628	128	278	44034	na	na
629	128	280	74020	na	na
630	128	396	20570	na	na
631	129	218	4958	na	na
632	129	223	61842	na	na
633	129	273	58331	na	na
634	129	352	2482	na	na
635	129	379	36345	na	na
636	129	381	38828	na	na
637	130	157	49690	na	na
638	130	251	25807	na	na
639	130	290	54499	na	na
640	130	302	71039	na	na
641	131	146	17346	na	na
642	131	158	62237	na	na
643	131	167	24926	na	na
644	131	184	3405	na	na
645	131	186	65643	na	na
646	131	267	43075	na	na
647	131	279	84856	na	na
648	131	315	97481	na	na
649	132	210	10161	na	na
650	132	255	61724	na	na
651	132	284	17666	na	na
652	132	309	21820	na	na
653	133	160	84765	na	na
654	133	295	16756	na	na
655	133	312	59244	na	na
656	133	351	46227	na	na
657	134	261	59102	na	na
658	134	287	9324	na	na
659	134	333	20923	na	na
660	134	375	86174	na	na
661	135	211	61478	na	na
662	135	215	29774	na	na
663	135	229	35260	na	na
664	136	163	56648	na	na
665	136	177	34677	na	na
666	136	295	72230	na	na
667	136	349	55744	na	na
668	136	359	28522	na	na
669	137	163	25075	na	na
670	137	288	98942	na	na
671	137	311	63928	na	na
672	137	329	92025	na	na
673	137	351	35453	na	na
674	137	388	46531	na	na
675	138	225	86569	na	na
676	138	237	22729	na	na
677	138	332	69046	na	na
678	138	397	21894	na	na
679	139	175	66892	na	na
680	139	252	64175	na	na
681	139	293	57823	na	na
682	139	307	87889	na	na
683	140	187	10449	na	na
684	140	325	39674	na	na
685	140	358	9662	na	na
686	141	202	62780	na	na
687	141	385	93468	na	na
688	142	261	52701	na	na
689	143	150	70670	na	na
690	143	258	73799	na	na
691	143	291	21068	na	na
692	143	309	55673	na	na
693	144	156	11260	na	na
694	144	237	65678	na	na
695	145	150	75445	na	na
696	145	197	74135	na	na
697	145	291	7885	na	na
698	145	380	32881	na	na
699	145	393	90481	na	na
700	146	277	55799	na	na
701	146	386	24222	na	na
702	146	395	80162	na	na
703	146	397	78520	na	na
704	146	398	35093	na	na
705	147	258	73457	na	na
706	147	375	93627	na	na
707	148	190	84377	na	na
708	148	204	59662	na	na
709	148	263	39404	na	na
710	148	283	60623	na	na
711	148	329	55368	na	na
712	148	398	33711	na	na
713	149	164	11051	na	na
714	149	274	18551	na	na
715	150	202	80539	na	na
716	150	216	67209	na	na
717	150	271	72718	na	na
718	150	333	76678	na	na
719	150	344	85178	na	na
720	150	348	10408	na	na
721	150	374	28202	na	na
722	151	206	71912	na	na
723	151	242	64418	na	na
724	151	280	40845	na	na
725	152	367	40359	na	na
726	152	386	65951	na	na
727	153	234	29672	na	na
728	153	265	51016	na	na
729	153	349	26621	na	na
730	153	386	34952	na	na
731	154	202	1749	na	na
732	154	299	24693	na	na
733	154	399	47736	na	na
734	155	283	17893	na	na
735	155	309	49167	na	na
736	155	369	33681	na	na
737	155	392	90729	na	na
738	156	204	44129	na	na
739	156	217	74828	na	na
740	156	251	33750	na	na
741	156	397	12602	na	na
742	157	199	62814	na	na
743	157	243	8133	na	na
744	157	322	83317	na	na
745	157	337	21756	na	na
746	157	376	61040	na	na
747	158	200	53843	na	na
748	158	243	37614	na	na
749	158	366	20537	na	na
750	158	377	7860	na	na
751	159	185	75917	na	na
752	160	205	62333	na	na
753	160	271	77483	na	na
754	160	278	97776	na	na
755	160	291	1089	na	na
756	160	300	47206	na	na
757	160	314	67821	na	na
758	160	351	64040	na	na
759	160	363	48229	na	na
760	161	168	53291	na	na
761	161	216	31026	na	na
762	161	217	72169	na	na
763	161	286	7047	na	na
764	161	354	35976	na	na
765	161	387	4402	na	na
766	162	179	9121	na	na
767	162	196	38123	na	na
768	162	291	25651	na	na
769	162	351	97626	na	na
770	162	385	95290	na	na
771	163	323	94992	na	na
772	163	348	76465	na	na
773	164	229	6515	na	na
774	164	253	58948	na	na
775	164	279	18694	na	na
776	164	333	66110	na	na
777	164	378	58271	na	na
778	165	177	34561	na	na
779	165	233	20530	na	na
780	165	235	10621	na	na
781	165	242	14400	na	na
782	165	303	35230	na	na
783	165	329	79645	na	na
784	165	334	95337	na	na
785	165	398	35873	na	na
786	166	213	99010	na	na
787	166	246	50812	na	na
788	166	276	18145	na	na
789	166	392	10957	na	na
790	167	224	38864	na	na
791	167	228	99704	na	na
792	167	257	83220	na	na
793	167	286	11488	na	na
794	168	216	83237	na	na
795	168	223	30086	na	na
796	168	248	22011	na	na
797	168	262	47334	na	na
798	168	302	48602	na	na
799	168	330	71413	na	na
800	169	217	30156	na	na
801	169	244	15969	na	na
802	169	250	67900	na	na
803	169	258	5751	na	na
804	169	298	6629	na	na
805	169	385	26826	na	na
806	170	258	13264	na	na
807	170	290	72442	na	na
808	170	338	15222	na	na
809	170	349	35076	na	na
810	171	286	96891	na	na
811	171	327	65629	na	na
812	171	386	26500	na	na
813	171	387	95939	na	na
814	172	204	5027	na	na
815	172	242	94433	na	na
816	172	340	37228	na	na
817	172	375	97094	na	na
818	173	183	98801	na	na
819	173	216	59505	na	na
820	173	285	98205	na	na
821	173	367	36398	na	na
822	173	392	30586	na	na
823	174	308	76188	na	na
824	176	181	42247	na	na
825	176	343	55824	na	na
826	176	393	23312	na	na
827	177	184	42100	na	na
828	177	283	67073	na	na
829	177	285	5675	na	na
830	177	348	12966	na	na
831	177	387	47273	na	na
832	178	214	63724	na	na
833	178	234	73285	na	na
834	179	236	40041	na	na
835	179	322	42873	na	na
836	179	366	67918	na	na
837	179	383	30320	na	na
838	180	264	83129	na	na
839	180	359	76665	na	na
840	181	185	77090	na	na
841	181	247	7929	na	na
842	181	259	40736	na	na
843	181	265	96384	na	na
844	181	278	43614	na	na
845	181	287	2672	na	na
846	181	295	67363	na	na
847	181	329	46240	na	na
848	181	330	82842	na	na
849	181	396	5657	na	na
850	182	240	79324	na	na
851	182	275	19950	na	na
852	182	370	627	na	na
853	183	191	64267	na	na
854	183	219	10826	na	na
855	183	389	72703	na	na
856	184	239	67024	na	na
857	184	315	71436	na	na
858	185	253	9995	na	na
859	185	373	92169	na	na
860	186	230	96809	na	na
861	186	275	44503	na	na
862	187	193	19704	na	na
863	187	323	96968	na	na
864	188	218	23137	na	na
865	188	256	30366	na	na
866	188	273	85799	na	na
867	188	348	45578	na	na
868	188	363	65983	na	na
869	189	195	52827	na	na
870	189	202	34808	na	na
871	189	205	46388	na	na
872	189	296	26581	na	na
873	190	238	23212	na	na
874	190	245	83889	na	na
875	190	366	84796	na	na
876	191	247	12890	na	na
877	191	272	96675	na	na
878	191	349	21986	na	na
879	192	221	13864	na	na
880	192	309	83299	na	na
881	192	399	19838	na	na
882	193	296	39004	na	na
883	193	371	4108	na	na
884	194	225	7676	na	na
885	194	315	89205	na	na
886	194	351	49374	na	na
887	194	365	67056	na	na
888	194	369	49310	na	na
889	195	246	14743	na	na
890	195	316	70401	na	na
891	195	342	21183	na	na
892	195	393	44835	na	na
893	197	255	70654	na	na
894	198	236	29361	na	na
895	198	327	51470	na	na
896	198	343	89370	na	na
897	198	355	70480	na	na
898	199	224	69016	na	na
899	199	286	13993	na	na
900	199	370	47526	na	na
901	199	390	26921	na	na
902	200	330	23358	na	na
903	201	283	2962	na	na
904	201	312	26477	na	na
905	201	372	74096	na	na
906	202	227	25944	na	na
907	202	245	76730	na	na
908	202	263	83868	na	na
909	202	381	6170	na	na
910	203	234	19118	na	na
911	203	297	55363	na	na
912	203	351	79207	na	na
913	203	357	95941	na	na
914	203	399	39528	na	na
915	204	267	74708	na	na
916	204	338	4046	na	na
917	204	363	59288	na	na
918	205	212	88085	na	na
919	205	306	5221	na	na
920	206	302	98618	na	na
921	206	377	28231	na	na
922	206	393	45080	na	na
923	207	244	69011	na	na
924	207	283	1338	na	na
925	207	354	44650	na	na
926	208	251	73880	na	na
927	208	272	47106	na	na
928	208	277	13689	na	na
929	208	279	87569	na	na
930	208	375	32063	na	na
931	209	252	37920	na	na
932	209	283	91851	na	na
933	209	289	76706	na	na
934	209	343	44708	na	na
935	209	381	81704	na	na
936	210	215	31041	na	na
937	210	248	87519	na	na
938	210	257	5749	na	na
939	210	354	13886	na	na
940	210	388	22665	na	na
941	211	258	449	na	na
942	211	297	90157	na	na
943	212	271	85238	na	na
944	212	285	92035	na	na
945	212	308	58371	na	na
946	212	317	64635	na	na
947	212	349	75710	na	na
948	213	254	87462	na	na
949	213	279	75480	na	na
950	213	317	21476	na	na
951	213	342	87760	na	na
952	213	386	87781	na	na
953	214	256	70719	na	na
954	214	260	35956	na	na
955	215	245	23148	na	na
956	215	272	29113	na	na
957	215	375	57292	na	na
958	215	396	52332	na	na
959	215	398	63644	na	na
960	216	233	52805	na	na
961	216	251	25370	na	na
962	216	258	16458	na	na
963	216	315	5824	na	na
964	216	318	73139	na	na
965	216	380	46022	na	na
966	216	400	69661	na	na
967	217	305	9990	na	na
968	217	337	46548	na	na
969	217	345	38908	na	na
970	217	393	11427	na	na
971	218	219	3167	na	na
972	218	223	20535	na	na
973	218	227	72914	na	na
974	218	232	12750	na	na
975	218	327	70215	na	na
976	218	330	28875	na	na
977	219	351	23705	na	na
978	220	271	49362	na	na
979	220	289	34203	na	na
980	220	313	27822	na	na
981	220	396	74713	na	na
982	221	222	58996	na	na
983	221	292	65969	na	na
984	221	372	73514	na	na
985	221	373	39702	na	na
986	222	227	9167	na	na
987	222	257	87393	na	na
988	222	270	86133	na	na
989	223	270	18987	na	na
990	223	355	84121	na	na
991	223	369	14830	na	na
992	224	294	71398	na	na
993	224	312	42023	na	na
994	224	313	77167	na	na
995	225	269	29058	na	na
996	225	284	97184	na	na
997	225	398	64242	na	na
998	226	260	80424	na	na
999	226	282	16152	na	na
1000	226	313	39075	na	na
1001	226	316	15890	na	na
1002	226	331	41867	na	na
1003	226	390	47304	na	na
1004	227	282	50020	na	na
1005	227	346	46252	na	na
1006	228	258	93251	na	na
1007	228	359	65831	na	na
1008	228	364	16770	na	na
1009	229	290	97035	na	na
1010	231	388	96111	na	na
1011	232	293	3977	na	na
1012	232	317	59889	na	na
1013	232	379	25319	na	na
1014	232	387	92285	na	na
1015	233	300	44348	na	na
1016	233	313	69229	na	na
1017	233	338	7007	na	na
1018	234	314	11939	na	na
1019	234	326	28307	na	na
1020	234	386	46605	na	na
1021	235	253	6852	na	na
1022	235	359	87323	na	na
1023	235	378	82397	na	na
1024	236	309	88965	na	na
1025	236	327	43310	na	na
1026	236	344	60072	na	na
1027	237	395	44178	na	na
1028	238	327	10974	na	na
1029	238	388	93924	na	na
1030	240	307	50719	na	na
1031	241	249	6192	na	na
1032	241	321	48286	na	na
1033	242	317	25663	na	na
1034	242	391	48405	na	na
1035	243	254	10827	na	na
1036	243	299	46975	na	na
1037	243	343	6045	na	na
1038	244	254	32687	na	na
1039	244	284	2302	na	na
1040	244	291	68577	na	na
1041	244	298	51019	na	na
1042	244	337	57144	na	na
1043	244	346	5474	na	na
1044	245	321	1217	na	na
1045	246	274	32831	na	na
1046	246	298	69636	na	na
1047	247	325	70247	na	na
1048	248	274	81984	na	na
1049	249	317	25479	na	na
1050	249	349	22798	na	na
1051	250	255	96360	na	na
1052	250	347	56944	na	na
1053	250	396	36201	na	na
1054	251	281	59282	na	na
1055	251	293	28764	na	na
1056	251	340	24289	na	na
1057	253	299	6703	na	na
1058	253	380	449	na	na
1059	254	395	78458	na	na
1060	255	321	55771	na	na
1061	255	322	52513	na	na
1062	256	325	47862	na	na
1063	256	333	33004	na	na
1064	256	348	10521	na	na
1065	256	382	86879	na	na
1066	256	392	5603	na	na
1067	257	275	92078	na	na
1068	257	281	97060	na	na
1069	257	297	35600	na	na
1070	257	339	53044	na	na
1071	257	349	11646	na	na
1072	258	367	20420	na	na
1073	258	368	84567	na	na
1074	258	378	79061	na	na
1075	259	320	22586	na	na
1076	259	381	81131	na	na
1077	260	380	5909	na	na
1078	261	302	96316	na	na
1079	261	365	16019	na	na
1080	262	394	58721	na	na
1081	263	293	25487	na	na
1082	263	297	98013	na	na
1083	263	339	54817	na	na
1084	263	354	78186	na	na
1085	264	349	92796	na	na
1086	265	361	5099	na	na
1087	265	384	18053	na	na
1088	265	387	35392	na	na
1089	265	388	1487	na	na
1090	265	394	11458	na	na
1091	266	267	44607	na	na
1092	266	365	23109	na	na
1093	266	369	41258	na	na
1094	269	307	30211	na	na
1095	269	329	7010	na	na
1096	269	366	17866	na	na
1097	271	295	1893	na	na
1098	271	374	39536	na	na
1099	271	375	95264	na	na
1100	272	278	34249	na	na
1101	272	325	63028	na	na
1102	272	347	15123	na	na
1103	272	363	67707	na	na
1104	273	274	76217	na	na
1105	273	331	20647	na	na
1106	273	353	5027	na	na
1107	274	309	45992	na	na
1108	274	360	5627	na	na
1109	275	305	23003	na	na
1110	276	316	54524	na	na
1111	276	364	54313	na	na
1112	277	279	94809	na	na
1113	277	382	72554	na	na
1114	279	397	48289	na	na
1115	280	329	97593	na	na
1116	281	352	27908	na	na
1117	281	365	531	na	na
1118	282	390	80762	na	na
1119	283	318	15711	na	na
1120	284	328	82942	na	na
1121	285	369	11532	na	na
1122	286	322	28493	na	na
1123	288	335	82466	na	na
1124	289	329	56110	na	na
1125	289	362	33149	na	na
1126	289	393	98226	na	na
1127	289	394	36191	na	na
1128	290	372	50692	na	na
1129	291	369	94648	na	na
1130	292	300	88603	na	na
1131	293	355	45853	na	na
1132	295	392	1801	na	na
1133	295	400	15758	na	na
1134	298	335	82128	na	na
1135	299	361	96712	na	na
1136	299	370	98339	na	na
1137	301	324	19493	na	na
1138	301	331	93526	na	na
1139	301	382	70977	na	na
1140	301	391	2044	na	na
1141	301	392	43704	na	na
1142	303	389	63935	na	na
1143	304	387	10459	na	na
1144	305	345	9957	na	na
1145	306	378	64971	na	na
1146	306	388	57592	na	na
1147	307	370	89384	na	na
1148	307	371	40763	na	na
1149	308	319	12541	na	na
1150	308	377	79823	na	na
1151	310	378	5876	na	na
1152	310	387	5645	na	na
1153	313	322	14807	na	na
1154	313	383	49287	na	na
1155	314	323	58162	na	na
1156	314	382	60988	na	na
1157	314	386	25344	na	na
1158	315	339	28161	na	na
1159	315	366	46714	na	na
1160	315	368	74875	na	na
1161	316	353	43366	na	na
1162	316	371	74717	na	na
1163	316	386	31265	na	na
1164	317	389	99250	na	na
1165	319	324	53568	na	na
1166	319	369	10443	na	na
1167	319	400	16112	na	na
1168	321	343	55714	na	na
1169	321	371	12308	na	na
1170	321	390	11892	na	na
1171	325	378	92853	na	na
1172	326	356	78409	na	na
1173	326	400	33994	na	na
1174	328	332	34269	na	na
1175	328	379	54610	na	na
1176	328	400	91672	na	na
1177	329	348	97664	na	na
1178	329	389	98825	na	na
1179	331	339	71504	na	na
1180	332	344	94198	na	na
1181	337	352	79052	na	na
1182	338	389	40259	na	na
1183	339	367	45026	na	na
1184	339	392	98332	na	na
1185	342	363	70739	na	na
1186	342	376	59650	na	na
1187	343	385	11307	na	na
1188	346	356	82591	na	na
1189	346	363	24733	na	na
1190	347	376	44169	na	na
1191	351	376	42572	na	na
1192	356	386	74778	na	na
1193	360	367	77857	na	na
1194	362	378	10685	na	na
1195	367	381	18523	na	na
1196	369	392	7482	na	na
1197	373	384	42841	na	na
1198	377	383	21036	na	na
1199	390	398	88428	na	na
1200	393	398	20920	na	na
ring
